************************************************************************
file with basedata            : mm22_.bas
initial value random generator: 1769051587
************************************************************************
projects                      :  1
jobs (incl. supersource/sink ):  12
horizon                       :  82
RESOURCES
  - renewable                 :  2   R
  - nonrenewable              :  2   N
  - doubly constrained        :  0   D
************************************************************************
PROJECT INFORMATION:
pronr.  #jobs rel.date duedate tardcost  MPM-Time
    1     10      0       18        3       18
************************************************************************
PRECEDENCE RELATIONS:
jobnr.    #modes  #successors   successors
   0        1          3           1   2   3
   1        3          3           7   9  10
   2        3          3           4   6   8
   3        3          1           4
   4        3          1           5
   5        3          2           9  10
   6        3          1          10
   7        3          1           8
   8        3          1          11
   9        3          1          11
  10        3          1          11
  11        1          0        
************************************************************************
REQUESTS/DURATIONS:
jobnr. mode duration  R 1  R 2  R 3  R 4  E(W 1)  E(W 2)
------------------------------------------------------------------------
  0      1     0       0    0    0    0     0       0
  1      1     8       3    0   10    7    24      136
  2      1     3       0    5    8    8    15      48
  3      1     1       0    9    7    8     9      15
  4      1     4       0    9    6    9    36      60
  5      1     3       0   10    9    5    30      42
  6      1     1       0    8    8    9     8      17
  7      1     4       7    0   10    8    28      72
  8      1     6       0    6    9    5    36      84
  9      1     2       0   10    4    6    20      20
 10      1     5       1    0    5    9    10      70
 11      1     0       0    0    0    0     0       0
************************************************************************
RESOURCEAVAILABILITIES:
  R 1  R 2
   33   129
************************************************************************
RESOURCE LIMITS:
jobnr.  l(R 1)  u(R 1)  l(R 2)  u(R 2)
------------------------------------------------------------------------
  0        0       0       0       0
  1        2       3       9      17
  2        3       5       8      16
  3        5       9       8      15
  4        5       9       8      15
  5        5      10       8      14
  6        4       8       9      17
  7        4       7       9      18
  8        3       6       8      14
  9        5      10       5      10
 10        1       2       8      14
 11        0       0       0       0
************************************************************************
SCENARIOS:
------------------------------------------------------------------------
RESOURCE k = 1
s = 1: (0, 28, 13, 7, 43, 16, 9, 17, 53, 17, 11, 0)
s = 2: (0, 22, 12, 9, 33, 29, 9, 30, 22, 21, 15, 0)
s = 3: (0, 16, 10, 8, 45, 19, 5, 21, 55, 26, 8, 0)
s = 4: (0, 33, 14, 13, 42, 21, 5, 26, 25, 16, 12, 0)
s = 5: (0, 18, 14, 10, 28, 21, 9, 27, 31, 24, 11, 0)
s = 6: (0, 34, 26, 8, 42, 40, 15, 22, 37, 21, 7, 0)
s = 7: (0, 24, 16, 8, 37, 20, 6, 28, 26, 29, 13, 0)
s = 8: (0, 31, 16, 6, 31, 20, 11, 41, 28, 22, 7, 0)
s = 9: (0, 26, 12, 7, 41, 32, 10, 32, 38, 18, 8, 0)
s = 10: (0, 24, 9, 10, 45, 36, 8, 33, 25, 21, 10, 0)
s = 11: (0, 18, 11, 8, 44, 36, 13, 42, 31, 19, 6, 0)
s = 12: (0, 26, 22, 9, 32, 31, 6, 43, 39, 22, 10, 0)
s = 13: (0, 17, 20, 7, 31, 27, 9, 39, 54, 19, 9, 0)
s = 14: (0, 21, 21, 12, 40, 39, 10, 21, 26, 30, 7, 0)
s = 15: (0, 35, 16, 9, 46, 26, 10, 29, 65, 18, 16, 0)
s = 16: (0, 20, 19, 6, 37, 42, 13, 29, 29, 32, 12, 0)
s = 17: (0, 21, 12, 16, 47, 21, 9, 41, 47, 22, 11, 0)
s = 18: (0, 25, 12, 14, 56, 46, 8, 36, 30, 24, 12, 0)
s = 19: (0, 30, 16, 6, 32, 24, 11, 29, 37, 22, 17, 0)
s = 20: (0, 27, 19, 9, 28, 26, 6, 19, 48, 23, 8, 0)
s = 21: (0, 17, 17, 6, 25, 20, 5, 41, 27, 17, 16, 0)
s = 22: (0, 26, 24, 8, 31, 56, 11, 32, 48, 15, 10, 0)
s = 23: (0, 22, 12, 6, 36, 25, 7, 32, 48, 18, 9, 0)
s = 24: (0, 21, 20, 8, 46, 23, 7, 24, 53, 25, 11, 0)
s = 25: (0, 22, 9, 7, 45, 32, 8, 24, 37, 20, 14, 0)
s = 26: (0, 18, 19, 11, 20, 36, 8, 17, 39, 26, 7, 0)
s = 27: (0, 14, 13, 7, 38, 21, 5, 39, 35, 21, 11, 0)
s = 28: (0, 29, 18, 16, 53, 17, 12, 34, 28, 21, 8, 0)
s = 29: (0, 18, 18, 8, 28, 41, 8, 38, 39, 26, 6, 0)
s = 30: (0, 21, 19, 11, 62, 28, 7, 21, 28, 27, 10, 0)
s = 31: (0, 24, 19, 9, 33, 24, 8, 29, 55, 19, 10, 0)
s = 32: (0, 21, 17, 5, 22, 26, 6, 36, 51, 19, 8, 0)
s = 33: (0, 21, 13, 8, 64, 40, 9, 30, 32, 22, 14, 0)
s = 34: (0, 21, 13, 7, 29, 42, 8, 17, 26, 15, 10, 0)
s = 35: (0, 26, 14, 15, 31, 23, 12, 23, 38, 25, 13, 0)
s = 36: (0, 27, 28, 7, 36, 24, 5, 26, 47, 20, 8, 0)
s = 37: (0, 26, 17, 6, 32, 18, 6, 24, 43, 16, 6, 0)
s = 38: (0, 25, 14, 8, 29, 33, 8, 22, 43, 25, 11, 0)
s = 39: (0, 18, 13, 8, 45, 19, 7, 25, 53, 16, 9, 0)
s = 40: (0, 26, 16, 9, 46, 25, 10, 23, 34, 24, 16, 0)
s = 41: (0, 22, 15, 10, 34, 49, 6, 33, 35, 26, 8, 0)
s = 42: (0, 29, 15, 10, 29, 17, 5, 38, 38, 18, 9, 0)
s = 43: (0, 21, 11, 8, 30, 36, 6, 24, 36, 12, 9, 0)
s = 44: (0, 42, 11, 7, 26, 32, 8, 25, 49, 17, 15, 0)
s = 45: (0, 26, 9, 8, 22, 39, 7, 29, 24, 22, 12, 0)
s = 46: (0, 27, 9, 7, 33, 32, 13, 29, 31, 19, 6, 0)
s = 47: (0, 16, 14, 11, 34, 30, 11, 29, 50, 14, 14, 0)
s = 48: (0, 17, 15, 7, 61, 43, 11, 25, 23, 15, 10, 0)
s = 49: (0, 35, 13, 11, 38, 25, 7, 33, 71, 36, 7, 0)
s = 50: (0, 31, 17, 12, 24, 28, 11, 45, 34, 29, 9, 0)
s = 51: (0, 23, 15, 10, 63, 23, 10, 32, 45, 17, 7, 0)
s = 52: (0, 24, 25, 14, 29, 21, 7, 20, 22, 28, 6, 0)
s = 53: (0, 18, 17, 11, 38, 30, 7, 18, 29, 16, 8, 0)
s = 54: (0, 20, 16, 14, 35, 33, 9, 19, 37, 20, 14, 0)
s = 55: (0, 21, 26, 9, 29, 32, 9, 24, 38, 23, 11, 0)
s = 56: (0, 23, 17, 12, 55, 24, 8, 28, 37, 21, 7, 0)
s = 57: (0, 25, 15, 12, 49, 28, 9, 24, 31, 17, 10, 0)
s = 58: (0, 22, 13, 8, 21, 42, 10, 40, 50, 14, 10, 0)
s = 59: (0, 31, 11, 10, 40, 43, 12, 22, 41, 17, 8, 0)
s = 60: (0, 19, 15, 10, 43, 25, 6, 25, 47, 15, 14, 0)
s = 61: (0, 34, 19, 12, 33, 34, 7, 19, 27, 27, 12, 0)
s = 62: (0, 24, 19, 8, 38, 34, 10, 33, 32, 18, 11, 0)
s = 63: (0, 30, 16, 11, 49, 37, 5, 26, 41, 16, 8, 0)
s = 64: (0, 31, 22, 11, 29, 30, 7, 33, 39, 14, 9, 0)
s = 65: (0, 17, 13, 8, 37, 26, 10, 19, 29, 15, 6, 0)
s = 66: (0, 22, 14, 13, 55, 26, 9, 31, 28, 24, 12, 0)
s = 67: (0, 34, 15, 6, 41, 58, 12, 33, 32, 32, 17, 0)
s = 68: (0, 28, 22, 16, 42, 33, 6, 21, 40, 26, 14, 0)
s = 69: (0, 24, 23, 7, 40, 44, 7, 38, 46, 17, 11, 0)
s = 70: (0, 33, 12, 11, 34, 39, 7, 24, 28, 22, 12, 0)
s = 71: (0, 21, 24, 13, 26, 47, 7, 39, 35, 21, 9, 0)
s = 72: (0, 14, 14, 8, 38, 35, 8, 27, 25, 15, 14, 0)
s = 73: (0, 19, 12, 9, 37, 31, 8, 21, 43, 24, 9, 0)
s = 74: (0, 19, 14, 9, 44, 27, 8, 32, 39, 19, 12, 0)
s = 75: (0, 23, 15, 6, 44, 35, 7, 27, 27, 29, 9, 0)
s = 76: (0, 24, 12, 10, 44, 34, 9, 19, 49, 22, 18, 0)
s = 77: (0, 29, 20, 7, 38, 45, 10, 35, 42, 18, 13, 0)
s = 78: (0, 21, 20, 8, 41, 32, 5, 26, 50, 28, 10, 0)
s = 79: (0, 26, 12, 7, 41, 26, 10, 28, 40, 22, 7, 0)
s = 80: (0, 21, 12, 12, 40, 37, 5, 21, 31, 28, 9, 0)
s = 81: (0, 20, 11, 11, 62, 33, 7, 31, 33, 16, 12, 0)
s = 82: (0, 34, 23, 8, 27, 51, 6, 28, 25, 21, 10, 0)
s = 83: (0, 28, 13, 14, 25, 23, 7, 32, 29, 21, 12, 0)
s = 84: (0, 15, 14, 8, 23, 34, 9, 35, 50, 20, 16, 0)
s = 85: (0, 26, 15, 9, 58, 23, 9, 36, 25, 16, 11, 0)
s = 86: (0, 43, 22, 13, 34, 32, 12, 35, 46, 26, 11, 0)
s = 87: (0, 38, 17, 10, 43, 20, 8, 25, 32, 29, 14, 0)
s = 88: (0, 17, 14, 6, 25, 27, 7, 26, 36, 18, 7, 0)
s = 89: (0, 15, 21, 11, 51, 38, 9, 24, 38, 15, 16, 0)
s = 90: (0, 13, 17, 7, 28, 27, 11, 18, 27, 22, 7, 0)
s = 91: (0, 18, 17, 9, 35, 32, 7, 31, 29, 16, 7, 0)
s = 92: (0, 23, 15, 12, 50, 43, 10, 29, 64, 18, 8, 0)
s = 93: (0, 23, 14, 14, 47, 27, 12, 47, 36, 27, 19, 0)
s = 94: (0, 19, 14, 11, 32, 30, 6, 30, 33, 17, 11, 0)
s = 95: (0, 20, 21, 13, 35, 40, 10, 27, 34, 16, 8, 0)
s = 96: (0, 24, 10, 9, 32, 22, 11, 33, 26, 14, 12, 0)
s = 97: (0, 19, 13, 11, 20, 36, 9, 23, 21, 21, 16, 0)
s = 98: (0, 19, 17, 11, 48, 33, 12, 25, 34, 21, 12, 0)
s = 99: (0, 26, 12, 9, 49, 36, 11, 44, 34, 14, 8, 0)
s = 100: (0, 17, 16, 8, 38, 31, 13, 29, 39, 17, 11, 0)
s = 101: (0, 39, 14, 9, 34, 32, 13, 30, 56, 20, 12, 0)
s = 102: (0, 37, 23, 6, 36, 41, 11, 19, 22, 18, 12, 0)
s = 103: (0, 16, 23, 7, 27, 34, 10, 25, 28, 19, 9, 0)
s = 104: (0, 17, 15, 10, 46, 30, 8, 24, 34, 21, 11, 0)
s = 105: (0, 24, 26, 10, 35, 17, 9, 33, 60, 30, 7, 0)
s = 106: (0, 16, 15, 10, 47, 22, 9, 23, 38, 14, 9, 0)
s = 107: (0, 15, 17, 5, 37, 50, 6, 26, 46, 16, 6, 0)
s = 108: (0, 22, 23, 8, 47, 26, 14, 22, 56, 14, 6, 0)
s = 109: (0, 24, 15, 11, 67, 26, 8, 45, 19, 14, 10, 0)
s = 110: (0, 23, 19, 8, 30, 30, 6, 30, 25, 25, 9, 0)
s = 111: (0, 20, 12, 11, 38, 31, 7, 41, 30, 20, 16, 0)
s = 112: (0, 36, 26, 8, 28, 25, 10, 16, 46, 19, 18, 0)
s = 113: (0, 26, 11, 6, 20, 29, 9, 30, 30, 12, 6, 0)
s = 114: (0, 25, 19, 7, 50, 24, 8, 24, 47, 24, 7, 0)
s = 115: (0, 15, 14, 11, 38, 34, 13, 33, 35, 20, 17, 0)
s = 116: (0, 27, 9, 7, 49, 26, 8, 21, 29, 15, 11, 0)
s = 117: (0, 21, 11, 6, 31, 21, 7, 32, 41, 23, 9, 0)
s = 118: (0, 39, 21, 12, 28, 36, 11, 28, 36, 15, 10, 0)
s = 119: (0, 24, 18, 11, 37, 43, 7, 26, 52, 18, 10, 0)
s = 120: (0, 19, 10, 7, 59, 30, 7, 15, 28, 16, 14, 0)
s = 121: (0, 25, 13, 9, 19, 29, 10, 19, 27, 26, 12, 0)
s = 122: (0, 27, 10, 13, 48, 27, 8, 18, 37, 17, 6, 0)
s = 123: (0, 21, 13, 7, 60, 27, 12, 26, 42, 16, 15, 0)
s = 124: (0, 22, 19, 9, 39, 24, 7, 26, 32, 13, 13, 0)
s = 125: (0, 18, 21, 6, 28, 21, 9, 45, 26, 21, 10, 0)
s = 126: (0, 17, 11, 7, 48, 36, 10, 40, 36, 17, 12, 0)
s = 127: (0, 15, 20, 8, 27, 30, 9, 23, 30, 19, 8, 0)
s = 128: (0, 20, 11, 6, 48, 33, 6, 28, 25, 11, 19, 0)
s = 129: (0, 19, 18, 8, 23, 40, 5, 16, 33, 23, 10, 0)
s = 130: (0, 22, 16, 11, 38, 26, 11, 49, 63, 16, 12, 0)
s = 131: (0, 26, 15, 11, 19, 26, 12, 50, 39, 18, 8, 0)
s = 132: (0, 16, 13, 8, 21, 38, 6, 44, 46, 16, 11, 0)
s = 133: (0, 21, 14, 11, 38, 21, 8, 37, 26, 23, 8, 0)
s = 134: (0, 21, 16, 10, 40, 34, 9, 24, 23, 12, 9, 0)
s = 135: (0, 22, 12, 9, 34, 37, 11, 27, 34, 15, 11, 0)
s = 136: (0, 19, 11, 10, 28, 54, 6, 30, 47, 16, 8, 0)
s = 137: (0, 32, 15, 11, 34, 31, 7, 30, 23, 22, 16, 0)
s = 138: (0, 19, 18, 7, 25, 39, 14, 20, 70, 16, 10, 0)
s = 139: (0, 32, 14, 10, 39, 36, 14, 29, 56, 13, 12, 0)
s = 140: (0, 38, 16, 7, 29, 40, 7, 34, 24, 23, 10, 0)
s = 141: (0, 25, 12, 7, 19, 22, 5, 21, 20, 14, 11, 0)
s = 142: (0, 21, 12, 7, 22, 39, 10, 22, 31, 22, 10, 0)
s = 143: (0, 28, 13, 13, 38, 30, 9, 25, 24, 17, 10, 0)
s = 144: (0, 19, 8, 7, 47, 31, 5, 33, 33, 14, 13, 0)
s = 145: (0, 21, 16, 11, 39, 32, 8, 30, 25, 18, 12, 0)
s = 146: (0, 25, 20, 8, 68, 17, 6, 43, 35, 21, 9, 0)
s = 147: (0, 22, 23, 11, 27, 21, 9, 25, 42, 18, 10, 0)
s = 148: (0, 22, 17, 11, 35, 27, 6, 18, 34, 21, 7, 0)
s = 149: (0, 34, 11, 10, 43, 17, 9, 33, 28, 22, 14, 0)
s = 150: (0, 17, 13, 10, 50, 23, 8, 30, 48, 17, 10, 0)
s = 151: (0, 35, 16, 14, 42, 26, 7, 36, 34, 14, 10, 0)
s = 152: (0, 14, 11, 11, 47, 45, 9, 33, 31, 21, 8, 0)
s = 153: (0, 18, 17, 6, 45, 19, 11, 29, 24, 26, 13, 0)
s = 154: (0, 25, 19, 7, 60, 21, 7, 20, 47, 25, 14, 0)
s = 155: (0, 22, 27, 9, 29, 43, 8, 27, 47, 26, 16, 0)
s = 156: (0, 24, 17, 8, 27, 45, 6, 28, 33, 24, 6, 0)
s = 157: (0, 20, 22, 8, 27, 25, 12, 23, 35, 13, 15, 0)
s = 158: (0, 19, 20, 8, 31, 20, 12, 29, 24, 20, 8, 0)
s = 159: (0, 29, 13, 12, 33, 28, 6, 19, 30, 17, 7, 0)
s = 160: (0, 22, 13, 11, 46, 31, 6, 23, 32, 22, 10, 0)
s = 161: (0, 29, 13, 6, 35, 43, 7, 25, 29, 15, 10, 0)
s = 162: (0, 18, 15, 7, 36, 33, 9, 18, 38, 13, 7, 0)
s = 163: (0, 25, 21, 7, 25, 44, 9, 34, 57, 12, 7, 0)
s = 164: (0, 23, 21, 13, 51, 34, 8, 28, 25, 16, 9, 0)
s = 165: (0, 23, 14, 7, 29, 23, 8, 18, 34, 21, 9, 0)
s = 166: (0, 18, 13, 8, 31, 25, 8, 18, 41, 14, 11, 0)
s = 167: (0, 32, 13, 14, 53, 28, 11, 28, 29, 27, 10, 0)
s = 168: (0, 17, 19, 8, 51, 28, 10, 27, 21, 17, 11, 0)
s = 169: (0, 18, 16, 10, 67, 44, 7, 23, 34, 13, 16, 0)
s = 170: (0, 29, 17, 11, 47, 21, 8, 22, 36, 28, 9, 0)
s = 171: (0, 27, 9, 10, 38, 25, 7, 23, 38, 30, 11, 0)
s = 172: (0, 19, 13, 11, 45, 25, 10, 30, 35, 14, 17, 0)
s = 173: (0, 22, 18, 13, 37, 37, 7, 30, 25, 39, 9, 0)
s = 174: (0, 19, 15, 10, 49, 34, 6, 22, 24, 30, 9, 0)
s = 175: (0, 34, 15, 12, 42, 39, 8, 35, 23, 30, 9, 0)
s = 176: (0, 24, 10, 8, 30, 48, 7, 18, 34, 15, 14, 0)
s = 177: (0, 25, 15, 11, 22, 33, 6, 36, 36, 16, 12, 0)
s = 178: (0, 38, 24, 9, 33, 26, 7, 25, 19, 22, 8, 0)
s = 179: (0, 22, 14, 6, 33, 39, 12, 40, 34, 16, 9, 0)
s = 180: (0, 21, 13, 11, 56, 22, 13, 15, 27, 19, 8, 0)
s = 181: (0, 22, 9, 13, 40, 28, 11, 23, 33, 16, 9, 0)
s = 182: (0, 21, 12, 12, 31, 22, 8, 21, 42, 14, 7, 0)
s = 183: (0, 18, 13, 9, 22, 19, 11, 30, 31, 21, 12, 0)
s = 184: (0, 24, 10, 6, 27, 23, 9, 18, 65, 24, 16, 0)
s = 185: (0, 14, 15, 8, 31, 21, 8, 24, 39, 12, 10, 0)
s = 186: (0, 30, 11, 11, 48, 20, 8, 25, 23, 12, 6, 0)
s = 187: (0, 20, 20, 5, 36, 20, 8, 35, 39, 30, 14, 0)
s = 188: (0, 21, 18, 14, 32, 42, 6, 42, 30, 15, 8, 0)
s = 189: (0, 15, 23, 10, 25, 38, 10, 36, 45, 19, 15, 0)
s = 190: (0, 26, 16, 12, 39, 40, 6, 21, 21, 22, 8, 0)
s = 191: (0, 25, 13, 10, 43, 55, 8, 27, 44, 14, 12, 0)
s = 192: (0, 23, 11, 9, 48, 43, 6, 18, 29, 32, 10, 0)
s = 193: (0, 35, 15, 5, 34, 34, 9, 20, 44, 15, 8, 0)
s = 194: (0, 18, 21, 7, 40, 40, 6, 29, 45, 30, 15, 0)
s = 195: (0, 18, 19, 9, 27, 34, 9, 33, 22, 24, 10, 0)
s = 196: (0, 34, 23, 8, 50, 21, 9, 27, 51, 19, 10, 0)
s = 197: (0, 23, 18, 8, 24, 44, 9, 22, 39, 16, 7, 0)
s = 198: (0, 22, 15, 8, 34, 24, 11, 22, 53, 16, 9, 0)
s = 199: (0, 25, 11, 9, 36, 27, 8, 40, 27, 14, 13, 0)
s = 200: (0, 17, 15, 11, 52, 23, 10, 28, 35, 21, 19, 0)
------------------------------------------------------------------------
RESOURCE k = 2
s = 1: (0, 156, 42, 12, 71, 23, 18, 43, 123, 17, 74, 0)
s = 2: (0, 124, 37, 15, 55, 40, 19, 76, 51, 21, 100, 0)
s = 3: (0, 91, 30, 13, 75, 26, 11, 52, 128, 26, 53, 0)
s = 4: (0, 185, 44, 21, 70, 29, 10, 67, 57, 16, 81, 0)
s = 5: (0, 100, 42, 16, 46, 29, 19, 69, 72, 24, 71, 0)
s = 6: (0, 192, 82, 13, 70, 56, 31, 57, 86, 21, 46, 0)
s = 7: (0, 134, 51, 13, 62, 28, 12, 72, 61, 29, 86, 0)
s = 8: (0, 173, 50, 10, 52, 28, 23, 105, 64, 22, 49, 0)
s = 9: (0, 146, 39, 11, 68, 45, 22, 82, 88, 18, 51, 0)
s = 10: (0, 135, 29, 16, 74, 50, 17, 84, 58, 21, 67, 0)
s = 11: (0, 102, 33, 12, 72, 50, 27, 108, 71, 19, 36, 0)
s = 12: (0, 145, 71, 15, 53, 43, 13, 110, 90, 22, 65, 0)
s = 13: (0, 93, 62, 11, 51, 38, 19, 99, 124, 19, 63, 0)
s = 14: (0, 116, 65, 19, 66, 55, 20, 52, 59, 30, 45, 0)
s = 15: (0, 194, 52, 14, 76, 36, 20, 75, 151, 18, 110, 0)
s = 16: (0, 110, 61, 10, 61, 58, 27, 75, 66, 32, 82, 0)
s = 17: (0, 114, 38, 27, 77, 30, 19, 106, 110, 22, 74, 0)
s = 18: (0, 141, 37, 23, 92, 64, 16, 91, 69, 24, 78, 0)
s = 19: (0, 166, 52, 10, 53, 34, 22, 73, 85, 22, 115, 0)
s = 20: (0, 153, 59, 14, 47, 36, 13, 49, 112, 23, 51, 0)
s = 21: (0, 94, 53, 10, 42, 28, 10, 105, 61, 17, 112, 0)
s = 22: (0, 148, 77, 14, 52, 78, 23, 82, 111, 15, 68, 0)
s = 23: (0, 120, 39, 10, 59, 35, 14, 82, 110, 18, 61, 0)
s = 24: (0, 117, 62, 13, 77, 32, 14, 62, 122, 25, 71, 0)
s = 25: (0, 121, 28, 12, 74, 45, 16, 61, 86, 20, 92, 0)
s = 26: (0, 101, 59, 19, 33, 50, 17, 42, 90, 26, 47, 0)
s = 27: (0, 80, 39, 12, 64, 30, 10, 100, 82, 21, 74, 0)
s = 28: (0, 161, 58, 26, 88, 24, 24, 88, 66, 21, 50, 0)
s = 29: (0, 99, 55, 14, 47, 57, 16, 97, 91, 26, 42, 0)
s = 30: (0, 114, 60, 18, 103, 38, 15, 53, 65, 27, 67, 0)
s = 31: (0, 135, 60, 14, 55, 34, 16, 74, 127, 19, 68, 0)
s = 32: (0, 119, 52, 9, 37, 36, 13, 91, 119, 19, 53, 0)
s = 33: (0, 116, 40, 12, 107, 55, 18, 76, 74, 22, 95, 0)
s = 34: (0, 119, 40, 11, 47, 59, 16, 42, 60, 15, 65, 0)
s = 35: (0, 144, 44, 25, 51, 32, 25, 59, 87, 25, 89, 0)
s = 36: (0, 148, 88, 12, 60, 34, 10, 65, 108, 20, 50, 0)
s = 37: (0, 144, 55, 10, 53, 25, 12, 62, 101, 16, 40, 0)
s = 38: (0, 138, 43, 14, 47, 46, 16, 55, 99, 25, 75, 0)
s = 39: (0, 101, 40, 13, 75, 26, 15, 65, 123, 16, 61, 0)
s = 40: (0, 147, 50, 14, 76, 35, 21, 59, 79, 24, 107, 0)
s = 41: (0, 121, 47, 16, 57, 69, 12, 83, 82, 26, 54, 0)
s = 42: (0, 162, 47, 16, 48, 24, 11, 96, 89, 18, 58, 0)
s = 43: (0, 119, 35, 12, 50, 50, 13, 62, 84, 12, 63, 0)
s = 44: (0, 236, 34, 12, 43, 44, 15, 64, 113, 17, 104, 0)
s = 45: (0, 144, 27, 13, 37, 55, 14, 74, 56, 22, 80, 0)
s = 46: (0, 151, 29, 11, 55, 44, 26, 73, 71, 19, 40, 0)
s = 47: (0, 89, 42, 18, 56, 41, 22, 74, 115, 14, 94, 0)
s = 48: (0, 91, 47, 11, 101, 60, 22, 64, 52, 15, 68, 0)
s = 49: (0, 194, 42, 18, 62, 35, 15, 84, 166, 36, 49, 0)
s = 50: (0, 175, 52, 19, 39, 40, 23, 115, 80, 29, 57, 0)
s = 51: (0, 128, 45, 17, 105, 32, 21, 81, 104, 17, 48, 0)
s = 52: (0, 131, 80, 23, 48, 30, 14, 50, 51, 28, 42, 0)
s = 53: (0, 101, 52, 18, 62, 42, 14, 46, 68, 16, 50, 0)
s = 54: (0, 109, 50, 22, 58, 46, 19, 48, 85, 20, 97, 0)
s = 55: (0, 114, 81, 14, 48, 44, 19, 62, 88, 23, 75, 0)
s = 56: (0, 130, 52, 19, 92, 33, 16, 72, 86, 21, 45, 0)
s = 57: (0, 139, 47, 19, 81, 39, 18, 60, 71, 17, 69, 0)
s = 58: (0, 122, 40, 14, 34, 58, 20, 101, 117, 14, 64, 0)
s = 59: (0, 176, 33, 17, 66, 60, 24, 56, 95, 17, 51, 0)
s = 60: (0, 104, 46, 16, 72, 35, 12, 63, 110, 15, 92, 0)
s = 61: (0, 188, 61, 19, 55, 48, 14, 48, 63, 27, 83, 0)
s = 62: (0, 132, 61, 14, 64, 48, 20, 85, 75, 18, 77, 0)
s = 63: (0, 166, 49, 19, 81, 52, 10, 65, 95, 16, 56, 0)
s = 64: (0, 175, 69, 18, 47, 42, 14, 84, 90, 14, 62, 0)
s = 65: (0, 95, 41, 13, 61, 36, 21, 48, 66, 15, 41, 0)
s = 66: (0, 123, 45, 22, 92, 36, 19, 79, 64, 24, 79, 0)
s = 67: (0, 189, 48, 9, 68, 81, 25, 85, 73, 32, 116, 0)
s = 68: (0, 158, 69, 26, 69, 46, 13, 53, 93, 26, 94, 0)
s = 69: (0, 132, 72, 12, 66, 61, 14, 96, 107, 17, 77, 0)
s = 70: (0, 182, 38, 18, 57, 54, 15, 62, 66, 22, 82, 0)
s = 71: (0, 117, 77, 21, 43, 65, 14, 99, 81, 21, 60, 0)
s = 72: (0, 78, 45, 13, 63, 48, 17, 70, 57, 15, 98, 0)
s = 73: (0, 105, 38, 15, 62, 44, 17, 53, 100, 24, 60, 0)
s = 74: (0, 106, 43, 15, 73, 38, 16, 80, 89, 19, 83, 0)
s = 75: (0, 130, 46, 10, 74, 48, 15, 68, 62, 29, 57, 0)
s = 76: (0, 132, 37, 16, 73, 47, 19, 48, 113, 22, 121, 0)
s = 77: (0, 161, 61, 11, 63, 63, 22, 90, 97, 18, 90, 0)
s = 78: (0, 117, 62, 12, 68, 45, 11, 66, 116, 28, 69, 0)
s = 79: (0, 143, 37, 11, 68, 37, 22, 71, 93, 22, 48, 0)
s = 80: (0, 114, 37, 19, 67, 51, 11, 53, 71, 28, 57, 0)
s = 81: (0, 110, 34, 17, 104, 47, 14, 79, 76, 16, 83, 0)
s = 82: (0, 192, 72, 14, 45, 72, 12, 72, 57, 21, 70, 0)
s = 83: (0, 154, 42, 23, 42, 32, 15, 81, 68, 21, 81, 0)
s = 84: (0, 83, 44, 14, 37, 47, 19, 88, 115, 20, 109, 0)
s = 85: (0, 145, 46, 14, 97, 32, 19, 91, 58, 16, 73, 0)
s = 86: (0, 243, 71, 21, 56, 45, 25, 90, 106, 26, 73, 0)
s = 87: (0, 211, 54, 16, 71, 28, 16, 64, 75, 29, 97, 0)
s = 88: (0, 95, 43, 10, 42, 38, 15, 66, 83, 18, 45, 0)
s = 89: (0, 84, 67, 18, 85, 52, 19, 61, 89, 15, 107, 0)
s = 90: (0, 73, 52, 11, 47, 37, 22, 46, 63, 22, 43, 0)
s = 91: (0, 98, 52, 14, 58, 44, 15, 79, 67, 16, 47, 0)
s = 92: (0, 129, 48, 20, 83, 61, 21, 75, 149, 18, 50, 0)
s = 93: (0, 129, 44, 23, 77, 37, 25, 120, 83, 27, 132, 0)
s = 94: (0, 107, 45, 18, 53, 41, 12, 75, 76, 17, 75, 0)
s = 95: (0, 110, 67, 21, 57, 56, 21, 70, 80, 16, 52, 0)
s = 96: (0, 131, 30, 14, 54, 30, 23, 84, 60, 14, 79, 0)
s = 97: (0, 107, 40, 17, 33, 50, 18, 59, 49, 21, 110, 0)
s = 98: (0, 104, 53, 18, 80, 45, 24, 63, 79, 21, 81, 0)
s = 99: (0, 147, 37, 14, 81, 50, 22, 112, 80, 14, 50, 0)
s = 100: (0, 96, 49, 13, 63, 43, 28, 73, 90, 17, 71, 0)
s = 101: (0, 217, 43, 15, 57, 45, 27, 77, 129, 20, 84, 0)
s = 102: (0, 207, 73, 10, 59, 57, 23, 48, 50, 18, 80, 0)
s = 103: (0, 90, 72, 12, 45, 48, 21, 64, 64, 19, 60, 0)
s = 104: (0, 92, 47, 17, 76, 42, 17, 61, 78, 21, 76, 0)
s = 105: (0, 132, 82, 16, 58, 24, 18, 83, 140, 30, 48, 0)
s = 106: (0, 91, 48, 16, 78, 30, 18, 59, 89, 14, 58, 0)
s = 107: (0, 85, 55, 9, 61, 70, 11, 66, 106, 16, 41, 0)
s = 108: (0, 125, 71, 13, 78, 36, 28, 55, 129, 14, 38, 0)
s = 109: (0, 133, 47, 17, 112, 37, 16, 116, 44, 14, 64, 0)
s = 110: (0, 130, 58, 13, 49, 41, 13, 76, 59, 25, 59, 0)
s = 111: (0, 111, 37, 17, 63, 43, 14, 105, 70, 20, 108, 0)
s = 112: (0, 200, 82, 13, 47, 34, 20, 40, 106, 19, 125, 0)
s = 113: (0, 145, 35, 10, 34, 41, 18, 77, 68, 12, 42, 0)
s = 114: (0, 138, 61, 11, 83, 33, 17, 62, 109, 24, 45, 0)
s = 115: (0, 83, 43, 19, 63, 47, 28, 85, 82, 20, 115, 0)
s = 116: (0, 149, 28, 12, 82, 36, 15, 52, 67, 15, 76, 0)
s = 117: (0, 116, 33, 9, 52, 30, 14, 81, 95, 23, 58, 0)
s = 118: (0, 217, 65, 20, 46, 50, 24, 72, 82, 15, 68, 0)
s = 119: (0, 134, 58, 19, 61, 60, 15, 67, 121, 18, 69, 0)
s = 120: (0, 107, 32, 12, 97, 42, 14, 38, 64, 16, 93, 0)
s = 121: (0, 138, 39, 14, 32, 40, 20, 49, 63, 26, 83, 0)
s = 122: (0, 150, 32, 21, 79, 38, 17, 45, 86, 17, 39, 0)
s = 123: (0, 119, 39, 12, 100, 38, 24, 66, 96, 16, 104, 0)
s = 124: (0, 120, 59, 14, 65, 34, 14, 66, 73, 13, 85, 0)
s = 125: (0, 99, 66, 10, 46, 29, 19, 114, 60, 21, 70, 0)
s = 126: (0, 96, 33, 12, 80, 50, 20, 101, 82, 17, 82, 0)
s = 127: (0, 83, 61, 13, 44, 41, 19, 59, 70, 19, 55, 0)
s = 128: (0, 110, 35, 10, 79, 47, 11, 70, 58, 11, 128, 0)
s = 129: (0, 105, 57, 14, 37, 56, 9, 40, 76, 23, 70, 0)
s = 130: (0, 120, 49, 18, 63, 36, 24, 126, 146, 16, 80, 0)
s = 131: (0, 146, 47, 17, 32, 36, 24, 128, 91, 18, 50, 0)
s = 132: (0, 86, 42, 13, 35, 52, 11, 113, 106, 16, 73, 0)
s = 133: (0, 115, 45, 18, 64, 30, 15, 94, 59, 23, 54, 0)
s = 134: (0, 115, 49, 17, 67, 48, 18, 61, 52, 12, 63, 0)
s = 135: (0, 121, 36, 14, 56, 52, 23, 69, 79, 15, 72, 0)
s = 136: (0, 105, 35, 17, 46, 75, 12, 75, 108, 16, 56, 0)
s = 137: (0, 180, 48, 18, 56, 43, 14, 76, 53, 22, 108, 0)
s = 138: (0, 104, 55, 11, 41, 55, 30, 52, 162, 16, 68, 0)
s = 139: (0, 177, 44, 16, 65, 50, 30, 75, 131, 13, 81, 0)
s = 140: (0, 212, 51, 11, 48, 56, 14, 88, 54, 23, 69, 0)
s = 141: (0, 141, 37, 11, 31, 30, 10, 52, 47, 14, 72, 0)
s = 142: (0, 116, 38, 11, 37, 55, 21, 56, 71, 22, 68, 0)
s = 143: (0, 157, 41, 22, 64, 42, 18, 63, 56, 17, 64, 0)
s = 144: (0, 103, 26, 11, 78, 43, 11, 84, 75, 14, 86, 0)
s = 145: (0, 115, 51, 18, 64, 45, 16, 78, 57, 18, 83, 0)
s = 146: (0, 138, 63, 13, 114, 24, 12, 110, 81, 21, 62, 0)
s = 147: (0, 124, 73, 19, 44, 29, 18, 65, 96, 18, 64, 0)
s = 148: (0, 123, 53, 18, 57, 38, 12, 44, 78, 21, 46, 0)
s = 149: (0, 192, 34, 17, 71, 24, 19, 84, 65, 22, 93, 0)
s = 150: (0, 96, 42, 16, 82, 32, 16, 78, 111, 17, 65, 0)
s = 151: (0, 199, 49, 23, 69, 36, 15, 91, 78, 14, 69, 0)
s = 152: (0, 76, 33, 19, 77, 63, 20, 85, 72, 21, 53, 0)
s = 153: (0, 99, 54, 9, 75, 26, 23, 73, 54, 26, 86, 0)
s = 154: (0, 142, 60, 11, 100, 29, 13, 50, 109, 25, 97, 0)
s = 155: (0, 121, 85, 15, 48, 61, 17, 69, 109, 26, 109, 0)
s = 156: (0, 135, 53, 12, 45, 62, 12, 72, 75, 24, 39, 0)
s = 157: (0, 112, 68, 13, 44, 35, 26, 59, 80, 13, 100, 0)
s = 158: (0, 103, 63, 13, 51, 28, 26, 74, 56, 20, 52, 0)
s = 159: (0, 164, 42, 19, 55, 38, 12, 48, 69, 17, 44, 0)
s = 160: (0, 123, 40, 18, 76, 44, 13, 58, 74, 22, 64, 0)
s = 161: (0, 161, 42, 9, 58, 60, 14, 63, 68, 15, 66, 0)
s = 162: (0, 99, 48, 12, 60, 45, 18, 46, 88, 13, 43, 0)
s = 163: (0, 138, 65, 11, 42, 62, 18, 87, 133, 12, 47, 0)
s = 164: (0, 129, 65, 22, 84, 47, 16, 71, 59, 16, 62, 0)
s = 165: (0, 129, 45, 11, 48, 33, 17, 45, 79, 21, 58, 0)
s = 166: (0, 97, 40, 14, 51, 35, 17, 46, 96, 14, 73, 0)
s = 167: (0, 180, 42, 22, 88, 39, 22, 72, 67, 27, 70, 0)
s = 168: (0, 93, 58, 13, 85, 39, 20, 69, 49, 17, 71, 0)
s = 169: (0, 100, 49, 16, 111, 61, 15, 58, 79, 13, 107, 0)
s = 170: (0, 162, 54, 18, 78, 29, 16, 56, 84, 28, 61, 0)
s = 171: (0, 148, 29, 17, 62, 35, 14, 58, 88, 30, 72, 0)
s = 172: (0, 103, 39, 18, 75, 35, 21, 77, 80, 14, 116, 0)
s = 173: (0, 124, 58, 22, 61, 51, 15, 76, 58, 39, 58, 0)
s = 174: (0, 107, 45, 17, 81, 47, 12, 55, 56, 30, 57, 0)
s = 175: (0, 188, 46, 19, 70, 54, 17, 88, 52, 30, 60, 0)
s = 176: (0, 136, 32, 12, 50, 68, 15, 46, 78, 15, 95, 0)
s = 177: (0, 137, 48, 18, 36, 46, 12, 91, 84, 16, 83, 0)
s = 178: (0, 215, 76, 14, 55, 37, 13, 63, 43, 22, 56, 0)
s = 179: (0, 121, 44, 10, 54, 55, 24, 101, 79, 16, 58, 0)
s = 180: (0, 118, 42, 19, 93, 30, 27, 38, 62, 19, 53, 0)
s = 181: (0, 122, 28, 22, 66, 39, 23, 59, 75, 16, 61, 0)
s = 182: (0, 118, 38, 19, 51, 31, 17, 52, 98, 14, 43, 0)
s = 183: (0, 100, 40, 14, 36, 26, 23, 75, 72, 21, 83, 0)
s = 184: (0, 134, 30, 10, 45, 32, 19, 45, 151, 24, 112, 0)
s = 185: (0, 78, 45, 13, 51, 29, 17, 60, 91, 12, 64, 0)
s = 186: (0, 167, 33, 18, 79, 27, 17, 64, 53, 12, 39, 0)
s = 187: (0, 113, 61, 9, 60, 28, 16, 88, 90, 30, 98, 0)
s = 188: (0, 116, 56, 23, 52, 59, 12, 107, 69, 15, 50, 0)
s = 189: (0, 85, 73, 16, 41, 53, 21, 92, 104, 19, 104, 0)
s = 190: (0, 143, 49, 19, 65, 56, 13, 52, 49, 22, 56, 0)
s = 191: (0, 138, 40, 16, 71, 76, 17, 68, 102, 14, 78, 0)
s = 192: (0, 131, 35, 14, 79, 61, 13, 46, 66, 32, 66, 0)
s = 193: (0, 195, 48, 9, 56, 48, 19, 50, 103, 15, 51, 0)
s = 194: (0, 102, 67, 12, 66, 56, 13, 73, 105, 30, 102, 0)
s = 195: (0, 101, 60, 14, 45, 48, 19, 83, 51, 24, 68, 0)
s = 196: (0, 192, 73, 13, 84, 29, 18, 69, 119, 19, 70, 0)
s = 197: (0, 129, 55, 13, 40, 61, 18, 56, 90, 16, 45, 0)
s = 198: (0, 121, 46, 13, 57, 34, 22, 56, 124, 16, 60, 0)
s = 199: (0, 138, 34, 15, 60, 38, 16, 103, 63, 14, 88, 0)
s = 200: (0, 92, 47, 19, 87, 32, 20, 72, 81, 21, 130, 0)
************************************************************************
ES/LS-VALUES:
jobnr.   ES(i)    LS(i)
------------------------------------------------------------------------
  0        0        0
  1        0       47
  2        0       52
  3        0       56
  4        5       58
  5       12       66
  6        5       70
  7       14       62
  8       21       70
  9       17       78
 10       17       72
 11       32       82
************************************************************************
BIG-M-VALUES:
M1 = 49, M2 = 289
************************************************************************
